(set-logic QF_SLIA)
(declare-const result String)
(declare-const attack String)
(declare-const prefix RegLan)
(declare-const infix RegLan)
(declare-const postfix RegLan)
(declare-const postfixs String)

(assert (str.in_re attack (re.++ prefix ((_ re.loop 5000 5000) infix) postfix)))
(assert (= prefix 
     (re.++  (str.to_re "\u{4d}") (re.++  (str.to_re "\u{6f}") (re.++  (str.to_re "\u{7a}") (re.++  (str.to_re "\u{69}") (re.++  (str.to_re "\u{6c}") (re.++  (str.to_re "\u{6c}")  (str.to_re "\u{61}")))))))
))
(assert (= infix 
        (re.inter  (re.++ (re.* re.allchar ) (re.* re.allchar ))  (re.++ (re.* re.allchar ) (re.++  (re.++  (str.to_re "\u{4d}") (re.++  (str.to_re "\u{6f}") (re.++  (str.to_re "\u{62}") (re.++  (str.to_re "\u{69}") (re.++  (str.to_re "\u{6c}")  (str.to_re "\u{65}")))))) (re.* re.allchar ))) )
))
(assert (= postfix 
         (str.to_re "\u{40}")
))
(assert (str.in_re postfixs postfix))
(assert (>= (str.len postfixs) 1))
(assert (= result (str.++ attack postfixs)))
(check-sat)
(get-model)